NAME: R12-120518-005634.tsp
TYPE: TSP
COMMENT: Random data
DIMENSION: 12
EDGE_WEIGHT_TYPE: EXPLICIT
EDGE_WEIGHT_FORMAT: FULL_MATRIX
DISPLAY_DATA_TYPE: NO_DISPLAY
EDGE_WEIGHT_SECTION
 0 25 90 61 32 98 31 61 68  7 32 31 
42  0 88 35 29 41 33 81 35 27 57 92 
86 54  0 49 22 17 35 77 88 28 99 47 
88 18 17  0 11 94 38 25 63 26 90 41 
25 76  5 66  0 14 50 15 51 32 39 36 
32  4  6 82 76  0 14 25 90 19  4 32 
94  0 17 12 30 39  0 42 10 63 31  2 
44 28 72 17 50 20 26  0 72 76 67  8 
51 86 12  4 11 62 10 37  0 35 71 37 
93 81  5 49  2 20 76  8 21  0 75  4 
29 59 78 10 58 63  4 63 46 27  0 65 
86 48 31 99 26 27 79 99 26 95 31  0 
EOF